sat
(model
; cardinality of BoundSet is 2
(declare-sort BoundSet 0)
; rep: @uc_BoundSet_0
; rep: @uc_BoundSet_1
; cardinality of UnboundSet is 1
(declare-sort UnboundSet 0)
; rep: @uc_UnboundSet_0
(define-fun a () UnboundSet @uc_UnboundSet_0)
(define-fun IsNoShirt ((BOUND_VARIABLE_393 UnboundSet)) Bool true)
(define-fun IsTampering ((BOUND_VARIABLE_399 BoundSet)) Bool (= @uc_BoundSet_0 BOUND_VARIABLE_399))
)
